100 500 10 200 10 100
12 174
23 193
11 146
50 187
43 135
70 65
30 194
86 156
96 90
20 98
50 127
46 28
17 59
68 145
26 172
44 156
27 168
95 97
57 43
65 56
22 155
93 127
34 101
79 24
46 47
23 133
88 99
56 39
70 10
30 118
79 172
67 138
37 21
79 73
59 130
90 65
85 52
67 32
23 86
55 146
51 193
99 109
81 51
49 84
30 135
89 44
49 86
58 66
69 28
77 185
33 92
15 54
12 75
80 121
71 156
38 118
56 179
13 106
43 177
39 115
75 24
78 38
89 165
91 41
25 67
38 174
87 131
19 105
69 137
68 169
77 126
14 85
48 147
22 168
24 182
60 56
86 74
12 139
26 22
86 42
77 39
97 71
20 55
69 178
21 14
71 97
48 76
20 78
47 152
83 158
38 161
12 172
86 153
51 85
24 102
61 87
67 145
71 112
80 137
72 195
